db/inputs/7801844727466315562793546652765413985.smt2
(set-logic QF_FP)
(declare-const x0 (_ FloatingPoint 11 53))
(declare-const x1 (_ FloatingPoint 11 53))
(declare-const x2 (_ FloatingPoint 11 53))
(declare-const x3 (_ FloatingPoint 11 53))
(declare-const x4 (_ FloatingPoint 11 53))
(declare-const x5 (_ FloatingPoint 11 53))
(declare-const x6 (_ FloatingPoint 11 53))
(declare-const x7 (_ FloatingPoint 11 53))
(declare-const x8 (_ FloatingPoint 11 53))
(declare-const x9 (_ FloatingPoint 11 53))
(declare-const x10 (_ FloatingPoint 11 53))
(assert (fp.gt (fp.add RNE (fp.neg x0) (fp.mul RNE x6 x5)) (fp.neg (fp.sub RNE x10 x5))))
(assert (fp.gt (fp.add RNE (fp.add RNE x9 x1) (fp.sub RNE x6 x10)) (fp.mul RNE (fp.neg x7) (fp.sub RNE x4 x0))))
(check-sat)
