db/data/7801844727466315562793546652765413985.z3.out
sat
-------------------
13.921154927
